25138.8
99 87 6 84 2 66 39 98 54 63 53 69 5 17 50 76 93 14 36 51 31 58 40 57 1 32 21 13 89 24 72 41 68 43 18 26 4 38 10 23 35 37 71 86 30 95 8 83 19 3 44 96 75 28 42 33 25 60 16 92 52 62 22 11 12 79 94 45 7 64 0 78 67 88 48 15 82 20 61 9 91 47 77 81 90 46 65 49 97 85 70 73 27 80 74 59 56 55 29 34 
